# Node Net
2101   1
5501   1
5000   1
 82   2
1901   2
2700   2
 72   3
2200   3
 88   3
9921   4
9900   4
7500   4
9991   5
9970   5
9902   5
7400   6
7000   6
 14   6
1801   7
201   7
 79   7
 29   8
7401   8
9917   9
 98   9
6500  10
 35  10
 95  11
 76  11
 70  12
3900  12
 33  13
 24  13
6501  14
7701  14
